sat
(:added-eqs                  24
 :arith-eq-adapter           7
 :arith-conflicts            3
 :arith-diseq                4
 :arith-grobner-calls        1
 :arith-lower                29
 :arith-make-feasible        13
 :arith-max-columns          409
 :arith-max-rows             67
 :arith-nla-add-bounds       1
 :arith-nla-propagate-bounds 3
 :arith-upper                67
 :binary-propagations        239
 :conflicts                  1
 :decisions                  110
 :final-checks               2
 :max-memory                 53.19
 :memory                     17.80
 :mk-bool-var                214
 :mk-clause                  20
 :mk-clause-binary           624
 :num-allocs                 2131588
 :num-checks                 1
 :propagations               242
 :rlimit-count               29794
 :sls-arith-steps            249
 :sls-ddfw-flips             280.00
 :sls-ddfw-shifts            198.00
 :sls-num-guided-search      1
 :sls-repair-down            25
 :sls-repair-up              52
 :solve-eqs-elim-vars        44
 :solve-eqs-steps            812
 :time                       0.02
 :total-time                 0.02)
